NAME          ClpDefau
ROWS
 N  OBJROW
 L  R_264_0
 L  R_264_1
 L  R_264_2
 L  R_264_3
 L  R_264_4
 L  R_264_5
 L  R_264_6
 L  R_264_7
 L  R_264_8
 L  R_264_9
 L  R_264_10
 L  R_264_11
 L  R_264_12
 L  R_264_13
 L  R_264_14
 L  R_264_15
 L  R_264_16
 L  R_264_17
 L  R_264_18
 L  R_264_19
 L  R_264_20
 L  R_264_21
 L  R_264_22
 L  R_264_23
 L  R_264_24
 L  R_264_25
 L  R_264_26
 L  R_264_27
 L  R_264_28
 L  R_264_29
 L  R_264_30
 L  R_264_31
COLUMNS
    x_0       OBJROW     -1.           R_264_1   42.         
    x_0       R_264_2   66.            R_264_6   58.         
    x_0       R_264_15  97.         
    x_1       OBJROW     -2.           R_264_21  25.         
    x_1       R_264_23  74.            R_264_28  67.         
    x_1       R_264_29  35.         
    x_2       OBJROW     -2.           R_264_3   47.         
    x_2       R_264_6   15.            R_264_8   94.         
    x_2       R_264_11  21.            R_264_14  76.         
    x_2       R_264_15  32.            R_264_16  5.          
    x_2       R_264_17  79.            R_264_25  34.         
    x_3       OBJROW     -6.           R_264_1   58.         
    x_3       R_264_17  22.            R_264_18  82.         
    x_3       R_264_22  32.         
    x_4       OBJROW     -3.           R_264_1   5.          
    x_4       R_264_3   66.            R_264_6   24.         
    x_4       R_264_8   4.             R_264_20  54.         
    x_4       R_264_26  16.            R_264_31  88.         
    x_5       OBJROW     -5.           R_264_1   26.         
    x_5       R_264_4   58.            R_264_5   82.         
    x_5       R_264_9   37.            R_264_10  40.         
    x_5       R_264_12  97.            R_264_14  48.         
    x_5       R_264_19  16.            R_264_20  79.         
    x_5       R_264_25  85.            R_264_27  91.         
    x_6       OBJROW     -5.           R_264_16  46.         
    x_6       R_264_17  70.            R_264_18  54.         
    x_6       R_264_24  38.            R_264_29  37.         
    x_6       R_264_30  70.         
    x_7       OBJROW     -10.          R_264_5   21.         
    x_7       R_264_12  57.            R_264_18  36.         
    x_8       OBJROW     -4.           R_264_4   60.         
    x_8       R_264_8   13.            R_264_9   28.         
    x_8       R_264_14  72.            R_264_16  96.         
    x_8       R_264_21  87.            R_264_28  1.          
    x_9       OBJROW     -10.          R_264_0   76.         
    x_9       R_264_6   11.            R_264_16  64.         
    x_9       R_264_20  72.            R_264_22  5.          
    x_10      OBJROW     -1.           R_264_0   41.         
    x_10      R_264_7   82.            R_264_11  65.         
    x_10      R_264_19  49.            R_264_28  92.         
    x_11      OBJROW     -10.          R_264_1   31.         
    x_11      R_264_5   18.            R_264_29  46.         
    x_11      R_264_31  24.         
    x_12      OBJROW     -3.           R_264_3   22.         
    x_12      R_264_15  41.            R_264_21  47.         
    x_12      R_264_30  19.            R_264_31  9.          
    x_13      OBJROW     -7.           R_264_2   67.         
    x_13      R_264_4   83.            R_264_23  14.         
    x_13      R_264_26  88.            R_264_28  51.         
    x_13      R_264_31  14.         
    x_14      OBJROW     -7.           R_264_2   55.         
    x_14      R_264_4   84.            R_264_8   18.         
    x_14      R_264_10  65.            R_264_12  70.         
    x_14      R_264_18  63.            R_264_19  70.         
    x_14      R_264_20  14.         
    x_15      OBJROW     -9.           R_264_2   27.         
    x_15      R_264_3   26.            R_264_19  71.         
    x_15      R_264_23  18.            R_264_28  99.         
    x_15      R_264_31  41.         
    x_16      OBJROW     -6.           R_264_0   26.         
    x_16      R_264_2   89.            R_264_4   12.         
    x_16      R_264_20  90.            R_264_23  54.         
    x_17      OBJROW     -9.           R_264_6   61.         
    x_17      R_264_11  48.            R_264_23  4.          
    x_17      R_264_24  41.            R_264_25  69.         
    x_18      OBJROW     -8.           R_264_0   75.         
    x_18      R_264_3   99.            R_264_5   76.         
    x_18      R_264_8   62.            R_264_11  39.         
    x_18      R_264_28  59.         
    x_19      OBJROW     -9.           R_264_4   70.         
    x_19      R_264_6   91.            R_264_14  59.         
    x_19      R_264_17  62.            R_264_18  84.         
    x_19      R_264_19  42.            R_264_21  19.         
    x_19      R_264_24  72.            R_264_27  91.         
    x_19      R_264_28  40.            R_264_31  72.         
    x_20      OBJROW     -5.           R_264_4   45.         
    x_20      R_264_12  44.            R_264_18  85.         
    x_20      R_264_19  70.            R_264_24  79.         
    x_20      R_264_25  76.            R_264_29  3.          
    x_20      R_264_31  32.         
    x_21      OBJROW     -1.           R_264_3   47.         
    x_21      R_264_4   77.            R_264_8   89.         
    x_21      R_264_13  67.            R_264_18  17.         
    x_21      R_264_29  77.         
    x_22      OBJROW     -1.           R_264_0   33.         
    x_22      R_264_15  39.            R_264_17  71.         
    x_22      R_264_28  37.         
    x_23      OBJROW     -6.           R_264_5   77.         
    x_23      R_264_8   95.            R_264_17  86.         
    x_23      R_264_19  58.         
    x_24      OBJROW     -8.           R_264_1   59.         
    x_24      R_264_2   2.             R_264_7   42.         
    x_24      R_264_17  91.            R_264_18  43.         
    x_24      R_264_22  62.            R_264_27  39.         
    x_25      OBJROW     -6.           R_264_1   28.         
    x_25      R_264_6   31.            R_264_16  99.         
    x_25      R_264_19  26.            R_264_22  63.         
    x_25      R_264_25  27.         
    x_26      OBJROW     -7.           R_264_2   47.         
    x_26      R_264_7   60.            R_264_8   99.         
    x_26      R_264_11  19.            R_264_21  17.         
    x_26      R_264_22  40.            R_264_24  6.          
    x_26      R_264_27  30.         
    x_27      OBJROW     -7.           R_264_0   25.         
    x_27      R_264_1   29.            R_264_2   16.         
    x_27      R_264_5   92.            R_264_10  71.         
    x_27      R_264_14  10.            R_264_17  95.         
    x_27      R_264_24  95.            R_264_25  12.         
    x_27      R_264_29  39.         
    x_28      OBJROW     -9.           R_264_1   30.         
    x_28      R_264_6   24.            R_264_10  43.         
    x_28      R_264_16  6.             R_264_17  49.         
    x_28      R_264_18  99.            R_264_24  74.         
    x_28      R_264_26  85.            R_264_29  41.         
    x_28      R_264_30  31.         
    x_29      OBJROW     -3.           R_264_2   30.         
    x_29      R_264_3   14.            R_264_11  17.         
    x_29      R_264_14  20.            R_264_19  1.          
    x_29      R_264_22  1.             R_264_23  49.         
    x_29      R_264_26  35.         
    x_30      OBJROW     -9.           R_264_25  29.         
    x_31      OBJROW     -3.           R_264_0   10.         
    x_31      R_264_4   48.            R_264_8   72.         
    x_31      R_264_9   51.            R_264_23  80.         
    x_31      R_264_27  63.            R_264_28  42.         
RHS
    RHS       R_264_0   103.           R_264_1   319.        
    RHS       R_264_2   251.           R_264_3   174.        
    RHS       R_264_4   308.           R_264_5   104.        
    RHS       R_264_6   186.           R_264_7   268.        
    RHS       R_264_8   211.           R_264_9   307.        
    RHS       R_264_10  215.           R_264_11  425.        
    RHS       R_264_12  337.           R_264_13  208.        
    RHS       R_264_14  104.           R_264_15  244.        
    RHS       R_264_16  85.            R_264_17  293.        
    RHS       R_264_18  414.           R_264_19  195.        
    RHS       R_264_20  173.           R_264_21  276.        
    RHS       R_264_22  326.           R_264_23  148.        
    RHS       R_264_24  296.           R_264_25  231.        
    RHS       R_264_26  117.           R_264_27  416.        
    RHS       R_264_28  168.           R_264_29  107.        
    RHS       R_264_30  294.           R_264_31  113.        
BOUNDS
 UI BOUND     x_0       10.         
 UI BOUND     x_1       10.         
 UI BOUND     x_2       10.         
 UI BOUND     x_3       10.         
 UI BOUND     x_4       10.         
 UI BOUND     x_5       10.         
 UI BOUND     x_6       10.         
 UI BOUND     x_7       10.         
 UI BOUND     x_8       10.         
 UI BOUND     x_9       10.         
 UI BOUND     x_10      10.         
 UI BOUND     x_11      10.         
 UI BOUND     x_12      10.         
 UI BOUND     x_13      10.         
 UI BOUND     x_14      10.         
 UI BOUND     x_15      10.         
 UI BOUND     x_16      10.         
 UI BOUND     x_17      10.         
 UI BOUND     x_18      10.         
 UI BOUND     x_19      10.         
 UI BOUND     x_20      10.         
 UI BOUND     x_21      10.         
 UI BOUND     x_22      10.         
 UI BOUND     x_23      10.         
 UI BOUND     x_24      10.         
 UI BOUND     x_25      10.         
 UI BOUND     x_26      10.         
 UI BOUND     x_27      10.         
 UI BOUND     x_28      10.         
 UI BOUND     x_29      10.         
 UI BOUND     x_30      10.         
 UI BOUND     x_31      10.         
ENDATA
